CMPL model generation - running

CMPL version: 1.11.0
Authors: Thomas Schleiff, Mike Steglich
Distributed under the GPLv3 

create model instance ...
write model instance ...
CMPL model generation - finished

Solver - running


Welcome to IBM(R) ILOG(R) CPLEX(R) Interactive Optimizer 12.7.1.0
  with Simplex, Mixed Integer & Barrier Optimizers
5725-A06 5725-A29 5724-Y48 5724-Y49 5724-Y54 5724-Y55 5655-Y21
Copyright IBM Corp. 1988, 2017.  All Rights Reserved.

Type 'help' for a list of available commands.
Type 'help' followed by a command name for more
information on commands.

CPLEX> Specified objective sense: MINIMIZE
Selected objective  name:  line[1]
Selected RHS        name:  RHS
Selected bound      name:  BOUND
Problem '/tmp/cmpl.T24659.mps' read.
Read time = 0.05 sec. (8.19 ticks)
CPLEX> CPXPARAM_Read_APIEncoding                        "UTF-8"
Tried aggregator 3 times.
MIP Presolve eliminated 19055 rows and 30348 columns.
MIP Presolve modified 340 coefficients.
Aggregator did 760 substitutions.
Reduced MIP has 2540 rows, 3485 columns, and 10157 nonzeros.
Reduced MIP has 3317 binaries, 0 generals, 0 SOSs, and 0 indicators.
Presolve time = 0.06 sec. (40.87 ticks)
Found incumbent of value 1777.659385 after 0.11 sec. (71.86 ticks)
Probing fixed 20 vars, tightened 0 bounds.
Probing time = 0.02 sec. (4.61 ticks)
Tried aggregator 1 time.
MIP Presolve eliminated 0 rows and 20 columns.
MIP Presolve modified 120 coefficients.
Reduced MIP has 2540 rows, 3465 columns, and 10117 nonzeros.
Reduced MIP has 3465 binaries, 0 generals, 0 SOSs, and 0 indicators.
Presolve time = 0.01 sec. (8.63 ticks)
Probing time = 0.01 sec. (2.74 ticks)
Clique table members: 6091.
MIP emphasis: balance optimality and feasibility.
MIP search method: dynamic search.
Parallel mode: none, using 1 thread.
Root relaxation solution time = 0.01 sec. (7.98 ticks)

        Nodes                                         Cuts/
   Node  Left     Objective  IInf  Best Integer    Best Bound    ItCnt     Gap

*     0+    0                         1777.6594       -4.0556           100.23%
      0     0      473.6296     1     1777.6594      473.6296      371   73.36%
*     0+    0                          475.6287      473.6296             0.42%
*     0+    0                          473.6582      473.6296             0.01%
      0     0        cutoff            473.6582      473.6296      371    0.01%
Elapsed time = 0.18 sec. (109.43 ticks, tree = 0.01 MB, solutions = 3)

Root node processing (before b&c):
  Real time             =    0.18 sec. (110.91 ticks)
Sequential b&c:
  Real time             =    0.00 sec. (0.00 ticks)
                          ------------
Total (root+branch&cut) =    0.18 sec. (110.91 ticks)

Solution pool: 3 solutions saved.

MIP - Integer optimal solution:  Objective =  4.7365820500e+02
Solution time =    0.18 sec.  Iterations = 371  Nodes = 0
Deterministic time = 111.01 ticks  (602.41 ticks/sec)

CPLEX> Incumbent solution written to file '/tmp/cmpl.T24659.gsol'.
CPLEX> 
CMPL: Time used for model generation: 1 seconds
CMPL: Time used for solving the model: 1 seconds


Solution written to ASCII file: results/output_generated_conf_0.8/2017-09-04-4/fair-nonlinear.sol

Solver - finished
